NAME : airline78.pruned_local_4.-115786634.tour
COMMENT : Length = -115786634
TYPE : TOUR
DIMENSION : 29
TOUR_SECTION
28
9
8
7
5
6
3
4
1
2
13
12
11
10
18
19
17
15
14
16
20
21
22
23
24
25
26
27
29
-1
EOF
